\* AmbulanceLocation5 *\
Maximize
OBJ: - 40 u_84 + x_0 + x_10 + x_12 + x_13 + x_14 + x_16 + x_17 + x_18 + x_19
 + x_2 + x_21 + x_22 + x_24 + x_26 + x_28 + x_29 + x_3 + x_30 + x_33 + x_34
 + x_36 + x_37 + x_39 + x_5 + x_6 + x_7 + x_8 + x_9
Subject To
_C1: - 40 u_0 - 40 u_1 - 40 u_10 - 40 u_11 - 40 u_12 - 40 u_13 - 40 u_14
 - 40 u_15 - 40 u_16 - 40 u_17 - 40 u_18 - 40 u_19 - 40 u_2 - 40 u_20
 - 40 u_21 - 40 u_22 - 40 u_23 - 40 u_24 - 40 u_25 - 40 u_26 - 40 u_27
 - 40 u_28 - 40 u_29 - 40 u_3 - 40 u_30 - 40 u_31 - 40 u_32 - 40 u_33
 - 40 u_34 - 40 u_35 - 40 u_36 - 40 u_37 - 40 u_38 - 40 u_39 - 40 u_4
 - 40 u_40 - 40 u_41 - 40 u_42 - 40 u_43 - 40 u_44 - 40 u_45 - 40 u_46
 - 40 u_47 - 40 u_48 - 40 u_49 - 40 u_5 - 40 u_50 - 40 u_51 - 40 u_52
 - 40 u_53 - 40 u_54 - 40 u_55 - 40 u_56 - 40 u_57 - 40 u_58 - 40 u_59
 - 40 u_6 - 40 u_60 - 40 u_61 - 40 u_62 - 40 u_63 - 40 u_64 - 40 u_65
 - 40 u_66 - 40 u_67 - 40 u_68 - 40 u_69 - 40 u_7 - 40 u_70 - 40 u_71
 - 40 u_72 - 40 u_73 - 40 u_74 - 40 u_75 - 40 u_76 - 40 u_77 - 40 u_78
 - 40 u_79 - 40 u_8 - 40 u_80 - 40 u_81 - 40 u_82 - 40 u_83 - 40 u_84 - 40 u_9
 + 47 x_0 + 46 x_1 + 37 x_10 + 47 x_11 + 49 x_12 + 54 x_13 + 55 x_14 + 60 x_15
 + 44 x_16 + 53 x_17 + 61 x_18 + 59 x_19 + 46 x_2 + 49 x_20 + 55 x_21
 + 52 x_22 + 53 x_23 + 55 x_24 + 53 x_25 + 51 x_26 + 52 x_27 + 54 x_28
 + 47 x_29 + 44 x_3 + 46 x_30 + 52 x_31 + 54 x_32 + 49 x_33 + 59 x_34
 + 47 x_35 + 45 x_36 + 51 x_37 + 58 x_38 + 49 x_39 + 48 x_4 + 40 x_5 + 56 x_6
 + 54 x_7 + 51 x_8 + 55 x_9 >= 1
_C2: x_0 + x_1 + x_10 + x_11 + x_12 + x_13 + x_14 + x_15 + x_16 + x_17 + x_18
 + x_19 + x_2 + x_20 + x_21 + x_22 + x_23 + x_24 + x_25 + x_26 + x_27 + x_28
 + x_29 + x_3 + x_30 + x_31 + x_32 + x_33 + x_34 + x_35 + x_36 + x_37 + x_38
 + x_39 + x_4 + x_5 + x_6 + x_7 + x_8 + x_9 = 3
Binaries
u_0
u_1
u_10
u_11
u_12
u_13
u_14
u_15
u_16
u_17
u_18
u_19
u_2
u_20
u_21
u_22
u_23
u_24
u_25
u_26
u_27
u_28
u_29
u_3
u_30
u_31
u_32
u_33
u_34
u_35
u_36
u_37
u_38
u_39
u_4
u_40
u_41
u_42
u_43
u_44
u_45
u_46
u_47
u_48
u_49
u_5
u_50
u_51
u_52
u_53
u_54
u_55
u_56
u_57
u_58
u_59
u_6
u_60
u_61
u_62
u_63
u_64
u_65
u_66
u_67
u_68
u_69
u_7
u_70
u_71
u_72
u_73
u_74
u_75
u_76
u_77
u_78
u_79
u_8
u_80
u_81
u_82
u_83
u_84
u_9
x_0
x_1
x_10
x_11
x_12
x_13
x_14
x_15
x_16
x_17
x_18
x_19
x_2
x_20
x_21
x_22
x_23
x_24
x_25
x_26
x_27
x_28
x_29
x_3
x_30
x_31
x_32
x_33
x_34
x_35
x_36
x_37
x_38
x_39
x_4
x_5
x_6
x_7
x_8
x_9
End
